results_rootrelaxation/bin012_050_042.srr.sol
solution status: optimal solution found
objective value:                                    0
_var31_                             0.258219826344595 	(obj:0)
_var703_                            0.034813382165345 	(obj:0)
_var704_                            0.463972676021562 	(obj:0)
_var732_                            0.306695197728487 	(obj:0)
_var736_                            0.115509649808649 	(obj:0)
_var738_                           0.0573638944899396 	(obj:0)
_var739_                             0.23406444179252 	(obj:0)
_var740_                            0.554092424180075 	(obj:0)
_var742_                            0.132463684622032 	(obj:0)
_var743_                           0.0380642771902365 	(obj:0)
_var749_                            0.214764824492818 	(obj:0)
_var757_                            0.515081683881323 	(obj:0)
_var758_                           0.0651413522077242 	(obj:0)
_var762_                            0.142545574256202 	(obj:0)
_var763_                           0.0583926587383236 	(obj:0)
_var766_                           0.0259660096292325 	(obj:0)
_var767_                            0.146948685239289 	(obj:0)
_var769_                            0.489691782231184 	(obj:0)
_var774_                             0.18464260730011 	(obj:0)
_var775_                            0.143903543064071 	(obj:0)
_var778_                            0.380807374182132 	(obj:0)
_var780_                            0.228426813711369 	(obj:0)
_var785_                             0.13007695156578 	(obj:0)
_var786_                            0.280358832969836 	(obj:0)
_var787_                            0.165548742850092 	(obj:0)
_var788_                             0.23307682811407 	(obj:0)
_var789_                            0.221390066252418 	(obj:0)
_var793_                           0.0865396485741314 	(obj:0)
_var794_                            0.024896094810911 	(obj:0)
_var796_                            0.331056335130241 	(obj:0)
_var797_                           0.0757581992510568 	(obj:0)
_var798_                            0.108966709188923 	(obj:0)
_var799_                          0.000329204559484986 	(obj:0)
_var804_                            0.359450228385665 	(obj:0)
_var805_                            0.288095140117691 	(obj:0)
_var806_                            0.303362001563723 	(obj:0)
_var807_                           0.0865396485741311 	(obj:0)
_var808_                           0.0162133245545457 	(obj:0)
_var812_                            0.142545574256202 	(obj:0)
_var814_                            0.165054936010867 	(obj:0)
_var816_                            0.405209662153822 	(obj:0)
_var820_                            0.315830624254145 	(obj:0)
_var821_                            0.469651454672648 	(obj:0)
_var823_                           0.0583103575984515 	(obj:0)
_var824_                          0.00267478704580271 	(obj:0)
_var825_                           0.0677749886835933 	(obj:0)
_var826_                            0.281881404057446 	(obj:0)
_var829_                            0.209291798691414 	(obj:0)
_var830_                           0.0170774865231894 	(obj:0)
_var831_                           0.0648944487881158 	(obj:0)
_var832_                            0.119007448253159 	(obj:0)
_var833_                            0.127607917369659 	(obj:0)
_var834_                            0.221636969672031 	(obj:0)
_var835_                           0.0637422328299249 	(obj:0)
_var836_                            0.146948685239289 	(obj:0)
_var838_                           0.0477346611250564 	(obj:0)
_var841_                           0.0760051026706738 	(obj:0)
_var843_                          0.00987613678449178 	(obj:0)
_var844_                            0.123245956956503 	(obj:0)
_var845_                           0.0624254145919926 	(obj:0)
_var847_                            0.156248714044689 	(obj:0)
_var854_                            0.142092917986914 	(obj:0)
