results_rootrelaxation/bin012_050_042.srr.log
SCIP version 8.0.3.5 [precision: 8 byte] [memory: block] [mode: optimized] [LP solver: Soplex 6.0.1.3] [GitHash: 438792519e]
Copyright (c) 2002-2023 Zuse Institute Berlin (ZIB)

External libraries: 
  Readline 8.1         GNU library for command line editing (gnu.org/s/readline)
  Soplex 6.0.1.3       Linear Programming Solver developed at Zuse Institute Berlin (soplex.zib.de) [GitHash: 713be0fe]
  CppAD 20180000.0     Algorithmic Differentiation of C++ algorithms developed by B. Bell (github.com/coin-or/CppAD)
  ZLIB 1.2.11          General purpose compression library by J. Gailly and M. Adler (zlib.net)
  bliss 0.77           Computing Graph Automorphism Groups by T. Junttila and P. Kaski (www.tcs.hut.fi/Software/bliss/)

user parameter file <scip.set> not found - using default parameters

srr/relaxation = TRUE

read problem <instances/bin012_050_042.srr>
============

Original problem: 
original problem has 0 variables (0 bin, 0 int, 0 impl, 0 cont) and 77 constraints

presolving:
presolving (1 rounds: 1 fast, 1 medium, 1 exhaustive):
 0 deleted vars, 0 deleted constraints, 0 added constraints, 0 tightened bounds, 0 added holes, 0 changed sides, 0 changed coefficients
 0 implications, 0 cliques
presolved problem has 0 variables (0 bin, 0 int, 0 impl, 0 cont) and 77 constraints
     77 constraints of type <linear>
Presolving Time: 0.00

 time | node  | left  |LP iter|LP it/n|mem/heur|mdpt |vars |cons |rows |cuts |sepa|confs|strbr|  dualbound   | primalbound  |  gap   | compl. 
  0.0s|     1 |     0 |     1 |     - |   710k |   0 |   1 |  77 |  77 |   0 |  0 |   0 |   0 |      --      |      --      |    Inf | unknown
r 0.1s|     1 |     0 |   988 |     - |simplero|   0 | 701 |  77 |  77 |   0 |  0 |   0 |   0 |      --      | 1.525072e+01 |    Inf | unknown
r 0.1s|     1 |     0 |  1010 |     - |simplero|   0 | 712 |  77 |  77 |   0 |  0 |   0 |   0 |      --      | 1.400322e+01 |    Inf | unknown
r 0.1s|     1 |     0 |  1070 |     - |simplero|   0 | 723 |  77 |  77 |   0 |  0 |   0 |   0 |      --      | 1.193773e+01 |    Inf | unknown
r 0.1s|     1 |     0 |  1111 |     - |simplero|   0 | 734 |  77 |  77 |   0 |  0 |   0 |   0 |      --      | 1.005260e+01 |    Inf | unknown
r 0.1s|     1 |     0 |  1171 |     - |simplero|   0 | 745 |  77 |  77 |   0 |  0 |   0 |   0 |      --      | 8.089699e+00 |    Inf | unknown
r 0.1s|     1 |     0 |  1240 |     - |simplero|   0 | 756 |  77 |  77 |   0 |  0 |   0 |   0 |      --      | 6.535218e+00 |    Inf | unknown
r 0.1s|     1 |     0 |  1293 |     - |simplero|   0 | 767 |  77 |  77 |   0 |  0 |   0 |   0 |      --      | 4.889018e+00 |    Inf | unknown
r 0.1s|     1 |     0 |  1344 |     - |simplero|   0 | 778 |  77 |  77 |   0 |  0 |   0 |   0 |      --      | 3.912782e+00 |    Inf | unknown
r 0.1s|     1 |     0 |  1395 |     - |simplero|   0 | 789 |  77 |  77 |   0 |  0 |   0 |   0 |      --      | 3.061219e+00 |    Inf | unknown
r 0.1s|     1 |     0 |  1418 |     - |simplero|   0 | 789 |  77 |  77 |   0 |  0 |   0 |   0 |      --      | 2.986616e+00 |    Inf | unknown
r 0.1s|     1 |     0 |  1421 |     - |simplero|   0 | 789 |  77 |  77 |   0 |  0 |   0 |   0 |      --      | 2.985276e+00 |    Inf | unknown
r 0.1s|     1 |     0 |  1422 |     - |simplero|   0 | 789 |  77 |  77 |   0 |  0 |   0 |   0 |      --      | 2.985233e+00 |    Inf | unknown
r 0.1s|     1 |     0 |  1464 |     - |simplero|   0 | 800 |  77 |  77 |   0 |  0 |   0 |   0 |      --      | 2.065146e+00 |    Inf | unknown
r 0.1s|     1 |     0 |  1476 |     - |simplero|   0 | 800 |  77 |  77 |   0 |  0 |   0 |   0 |      --      | 1.996926e+00 |    Inf | unknown
 time | node  | left  |LP iter|LP it/n|mem/heur|mdpt |vars |cons |rows |cuts |sepa|confs|strbr|  dualbound   | primalbound  |  gap   | compl. 
r 0.1s|     1 |     0 |  1478 |     - |simplero|   0 | 800 |  77 |  77 |   0 |  0 |   0 |   0 |      --      | 1.992754e+00 |    Inf | unknown
r 0.1s|     1 |     0 |  1511 |     - |simplero|   0 | 811 |  77 |  77 |   0 |  0 |   0 |   0 |      --      | 1.349604e+00 |    Inf | unknown
r 0.1s|     1 |     0 |  1528 |     - |simplero|   0 | 811 |  77 |  77 |   0 |  0 |   0 |   0 |      --      | 1.269388e+00 |    Inf | unknown
r 0.1s|     1 |     0 |  1574 |     - |simplero|   0 | 822 |  77 |  77 |   0 |  0 |   0 |   0 |      --      | 6.718409e-01 |    Inf | unknown
r 0.1s|     1 |     0 |  1587 |     - |simplero|   0 | 822 |  77 |  77 |   0 |  0 |   0 |   0 |      --      | 6.353729e-01 |    Inf | unknown
r 0.1s|     1 |     0 |  1614 |     - |simplero|   0 | 833 |  77 |  77 |   0 |  0 |   0 |   0 |      --      | 4.431804e-01 |    Inf | unknown
r 0.1s|     1 |     0 |  1651 |     - |simplero|   0 | 844 |  77 |  77 |   0 |  0 |   0 |   0 |      --      | 2.416504e-01 |    Inf | unknown
r 0.1s|     1 |     0 |  1682 |     - |simplero|   0 | 844 |  77 |  77 |   0 |  0 |   0 |   0 |      --      | 1.175743e-01 |    Inf | unknown
r 0.1s|     1 |     0 |  1698 |     - |simplero|   0 | 855 |  77 |  77 |   0 |  0 |   0 |   0 |      --      | 0.000000e+00 |    Inf | unknown
  0.1s|     1 |     0 |  1698 |     - |  4114k |   0 | 855 |  77 |  77 |   0 |  0 |   0 |   0 | 0.000000e+00 | 0.000000e+00 |   0.00%| unknown
  0.1s|     1 |     0 |  1698 |     - |  4114k |   0 | 855 |  77 |  77 |   0 |  0 |   0 |   0 | 0.000000e+00 | 0.000000e+00 |   0.00%| unknown

SCIP Status        : problem is solved [optimal solution found]
Solving Time (sec) : 0.09
Solving Nodes      : 1
Primal Bound       : +0.00000000000000e+00 (23 solutions)
Dual Bound         : +0.00000000000000e+00
Gap                : 0.00 %

written transformed problem to file <results_rootrelaxation/bin012_050_042.srr.lp>
written transformed problem to file <results_rootrelaxation/bin012_050_042.srr.cip>


SCIP version 8.0.3.5 [precision: 8 byte] [memory: block] [mode: optimized] [LP solver: Soplex 6.0.1.3] [GitHash: 438792519e]
Copyright (c) 2002-2023 Zuse Institute Berlin (ZIB)

External libraries: 
  Readline 8.1         GNU library for command line editing (gnu.org/s/readline)
  Soplex 6.0.1.3       Linear Programming Solver developed at Zuse Institute Berlin (soplex.zib.de) [GitHash: 713be0fe]
  CppAD 20180000.0     Algorithmic Differentiation of C++ algorithms developed by B. Bell (github.com/coin-or/CppAD)
  ZLIB 1.2.11          General purpose compression library by J. Gailly and M. Adler (zlib.net)
  bliss 0.77           Computing Graph Automorphism Groups by T. Junttila and P. Kaski (www.tcs.hut.fi/Software/bliss/)

user parameter file <scip.set> not found - using default parameters

srr/relaxation = TRUE

read problem <instances/bin012_050_042.srr>
============

Original problem: 
original problem has 0 variables (0 bin, 0 int, 0 impl, 0 cont) and 77 constraints

presolving:
presolving (1 rounds: 1 fast, 1 medium, 1 exhaustive):
 0 deleted vars, 0 deleted constraints, 0 added constraints, 0 tightened bounds, 0 added holes, 0 changed sides, 0 changed coefficients
 0 implications, 0 cliques
presolved problem has 0 variables (0 bin, 0 int, 0 impl, 0 cont) and 77 constraints
     77 constraints of type <linear>
Presolving Time: 0.00

 time | node  | left  |LP iter|LP it/n|mem/heur|mdpt |vars |cons |rows |cuts |sepa|confs|strbr|  dualbound   | primalbound  |  gap   | compl. 
  0.0s|     1 |     0 |     1 |     - |   710k |   0 |   1 |  77 |  77 |   0 |  0 |   0 |   0 |      --      |      --      |    Inf | unknown
r 0.0s|     1 |     0 |   988 |     - |simplero|   0 | 701 |  77 |  77 |   0 |  0 |   0 |   0 |      --      | 1.525072e+01 |    Inf | unknown
r 0.1s|     1 |     0 |  1010 |     - |simplero|   0 | 712 |  77 |  77 |   0 |  0 |   0 |   0 |      --      | 1.400322e+01 |    Inf | unknown
r 0.1s|     1 |     0 |  1070 |     - |simplero|   0 | 723 |  77 |  77 |   0 |  0 |   0 |   0 |      --      | 1.193773e+01 |    Inf | unknown
r 0.1s|     1 |     0 |  1111 |     - |simplero|   0 | 734 |  77 |  77 |   0 |  0 |   0 |   0 |      --      | 1.005260e+01 |    Inf | unknown
r 0.1s|     1 |     0 |  1171 |     - |simplero|   0 | 745 |  77 |  77 |   0 |  0 |   0 |   0 |      --      | 8.089699e+00 |    Inf | unknown
r 0.1s|     1 |     0 |  1240 |     - |simplero|   0 | 756 |  77 |  77 |   0 |  0 |   0 |   0 |      --      | 6.535218e+00 |    Inf | unknown
r 0.1s|     1 |     0 |  1293 |     - |simplero|   0 | 767 |  77 |  77 |   0 |  0 |   0 |   0 |      --      | 4.889018e+00 |    Inf | unknown
r 0.1s|     1 |     0 |  1344 |     - |simplero|   0 | 778 |  77 |  77 |   0 |  0 |   0 |   0 |      --      | 3.912782e+00 |    Inf | unknown
r 0.1s|     1 |     0 |  1395 |     - |simplero|   0 | 789 |  77 |  77 |   0 |  0 |   0 |   0 |      --      | 3.061219e+00 |    Inf | unknown
r 0.1s|     1 |     0 |  1418 |     - |simplero|   0 | 789 |  77 |  77 |   0 |  0 |   0 |   0 |      --      | 2.986616e+00 |    Inf | unknown
r 0.1s|     1 |     0 |  1421 |     - |simplero|   0 | 789 |  77 |  77 |   0 |  0 |   0 |   0 |      --      | 2.985276e+00 |    Inf | unknown
r 0.1s|     1 |     0 |  1422 |     - |simplero|   0 | 789 |  77 |  77 |   0 |  0 |   0 |   0 |      --      | 2.985233e+00 |    Inf | unknown
r 0.1s|     1 |     0 |  1464 |     - |simplero|   0 | 800 |  77 |  77 |   0 |  0 |   0 |   0 |      --      | 2.065146e+00 |    Inf | unknown
r 0.1s|     1 |     0 |  1476 |     - |simplero|   0 | 800 |  77 |  77 |   0 |  0 |   0 |   0 |      --      | 1.996926e+00 |    Inf | unknown
 time | node  | left  |LP iter|LP it/n|mem/heur|mdpt |vars |cons |rows |cuts |sepa|confs|strbr|  dualbound   | primalbound  |  gap   | compl. 
r 0.1s|     1 |     0 |  1478 |     - |simplero|   0 | 800 |  77 |  77 |   0 |  0 |   0 |   0 |      --      | 1.992754e+00 |    Inf | unknown
r 0.1s|     1 |     0 |  1511 |     - |simplero|   0 | 811 |  77 |  77 |   0 |  0 |   0 |   0 |      --      | 1.349604e+00 |    Inf | unknown
r 0.1s|     1 |     0 |  1528 |     - |simplero|   0 | 811 |  77 |  77 |   0 |  0 |   0 |   0 |      --      | 1.269388e+00 |    Inf | unknown
r 0.1s|     1 |     0 |  1574 |     - |simplero|   0 | 822 |  77 |  77 |   0 |  0 |   0 |   0 |      --      | 6.718409e-01 |    Inf | unknown
r 0.1s|     1 |     0 |  1587 |     - |simplero|   0 | 822 |  77 |  77 |   0 |  0 |   0 |   0 |      --      | 6.353729e-01 |    Inf | unknown
r 0.1s|     1 |     0 |  1614 |     - |simplero|   0 | 833 |  77 |  77 |   0 |  0 |   0 |   0 |      --      | 4.431804e-01 |    Inf | unknown
r 0.1s|     1 |     0 |  1651 |     - |simplero|   0 | 844 |  77 |  77 |   0 |  0 |   0 |   0 |      --      | 2.416504e-01 |    Inf | unknown
r 0.1s|     1 |     0 |  1682 |     - |simplero|   0 | 844 |  77 |  77 |   0 |  0 |   0 |   0 |      --      | 1.175743e-01 |    Inf | unknown
r 0.1s|     1 |     0 |  1698 |     - |simplero|   0 | 855 |  77 |  77 |   0 |  0 |   0 |   0 |      --      | 0.000000e+00 |    Inf | unknown
  0.1s|     1 |     0 |  1698 |     - |  4114k |   0 | 855 |  77 |  77 |   0 |  0 |   0 |   0 | 0.000000e+00 | 0.000000e+00 |   0.00%| unknown
  0.1s|     1 |     0 |  1698 |     - |  4114k |   0 | 855 |  77 |  77 |   0 |  0 |   0 |   0 | 0.000000e+00 | 0.000000e+00 |   0.00%| unknown

SCIP Status        : problem is solved [optimal solution found]
Solving Time (sec) : 0.08
Solving Nodes      : 1
Primal Bound       : +0.00000000000000e+00 (23 solutions)
Dual Bound         : +0.00000000000000e+00
Gap                : 0.00 %

written transformed problem to file <results_rootrelaxation/bin012_050_042.srr.lp>
written transformed problem to file <results_rootrelaxation/bin012_050_042.srr.cip>

written solution information to file <results_rootrelaxation/bin012_050_042.srr.sol>



